PARAMETER_FILE = even/LKH_uncomplete_graph/x5/seg/par/random29.par
PROBLEM_FILE = even/LKH_uncomplete_graph/x5/seg/mat/random29.tsp
Successes/Runs = 0/10
Cost.min = 437, Cost.avg = 437.00, Cost.max = 437
Gap.min = 0.0000%, Gap.avg = 0.0000%, Gap.max = 0.0000%
Trials.min = 1000, Trials.avg = 1000.0, Trials.max = 1000
Time.min = 0.02 sec., Time.avg = 0.02 sec., Time.max = 0.02 sec.
Time.total = 0.21 sec.
请按任意键继续. . . 
